c User generated cnf file
p cnf 12 66
-10 4 9 0 
2 -7 3 0 
5 -11 9 0 
-2 10 2 0 
12 -5 3 0 
-3 10 5 0 
10 5 -1 0 
11 -6 10 0 
-4 6 8 0 
-9 11 3 0 
10 10 -3 0 
4 3 -7 0 
12 -7 12 0 
-12 8 7 0 
10 3 -11 0 
8 8 -4 0 
-6 12 12 0 
-7 6 11 0 
9 -4 10 0 
9 -2 10 0 
-9 12 2 0 
8 1 -4 0 
-6 8 11 0 
-1 9 8 0 
-8 12 9 0 
10 -8 2 0 
-7 3 11 0 
9 -8 10 0 
1 12 -7 0 
9 9 -8 0 
-6 2 5 0 
-4 3 11 0 
7 -5 4 0 
1 -6 11 0 
-3 5 10 0 
10 -2 8 0 
-1 12 7 0 
-5 1 1 0 
-4 6 9 0 
-7 5 4 0 
4 -12 2 0 
6 -6 5 0 
11 -11 6 0 
5 -12 4 0 
3 -11 7 0 
-5 8 10 0 
9 5 -1 0 
-12 7 7 0 
2 -4 6 0 
10 -5 10 0 
-7 4 1 0 
-1 5 9 0 
5 -2 5 0 
-8 1 1 0 
-6 3 4 0 
3 12 -7 0 
4 -12 8 0 
5 1 -11 0 
-12 11 5 0 
1 -2 9 0 
8 -12 4 0 
1 -8 11 0 
-3 1 11 0 
-6 9 12 0 
11 -4 7 0 
-9 11 5 0 
